; benchmark generated from python API
(set-info :status unknown)
(declare-fun x_days () Int)
(assert
 (>= x_days (- 36525)))
(assert
 (<= x_days 36523))
(assert
 (= x_days 7304))
(assert
 (let ((?x594 (+ x_days 730179)))
(let ((?x666 (mod ?x594 146097)))
(let ((?x1167 (div ?x666 36524)))
(let ((?x1107 (ite (<= 4 ?x1167) 3 ?x1167)))
(let ((?x425 (- ?x666 (* ?x1107 36524))))
(let ((?x909 (mod ?x425 1461)))
(let ((?x1024 (div ?x909 365)))
(let ((?x748 (ite (<= 4 ?x1024) 3 ?x1024)))
(let ((?x3086 (+ (+ (* (div ?x594 146097) 400) (* ?x1107 100)) (* (div ?x425 1461) 4))))
(let ((?x2125 (+ (+ ?x3086 ?x748) 1)))
(let (($x3503 (or (and (= (mod ?x2125 4) 0) (and (distinct (mod ?x2125 100) 0) true)) (= (mod ?x2125 400) 0))))
(let ((?x878 (- ?x909 (* ?x748 365))))
(let ((?x1058 (ite $x3503 31 31)))
(let (($x1100 (>= ?x878 ?x1058)))
(let ((?x632 (ite $x1100 (+ (- ?x878 ?x1058) 1) (+ (- ?x878 (ite $x3503 0 0)) 1))))
(let ((?x795 (ite $x3503 60 59)))
(let (($x947 (>= ?x878 ?x795)))
(let ((?x910 (ite $x3503 91 90)))
(let (($x1175 (>= ?x878 ?x910)))
(let ((?x495 (ite $x1175 (+ (- ?x878 ?x910) 1) (ite $x947 (+ (- ?x878 ?x795) 1) ?x632))))
(let ((?x563 (ite $x3503 121 120)))
(let (($x1263 (>= ?x878 ?x563)))
(let ((?x606 (ite $x3503 152 151)))
(let (($x844 (>= ?x878 ?x606)))
(let ((?x987 (ite $x844 (+ (- ?x878 ?x606) 1) (ite $x1263 (+ (- ?x878 ?x563) 1) ?x495))))
(let ((?x1010 (ite $x3503 182 181)))
(let (($x946 (>= ?x878 ?x1010)))
(let ((?x1179 (ite $x3503 213 212)))
(let (($x1067 (>= ?x878 ?x1179)))
(let ((?x595 (ite $x1067 (+ (- ?x878 ?x1179) 1) (ite $x946 (+ (- ?x878 ?x1010) 1) ?x987))))
(let ((?x764 (ite $x3503 244 243)))
(let (($x691 (>= ?x878 ?x764)))
(let ((?x813 (ite $x3503 274 273)))
(let (($x1104 (>= ?x878 ?x813)))
(let ((?x401 (ite $x1104 (+ (- ?x878 ?x813) 1) (ite $x691 (+ (- ?x878 ?x764) 1) ?x595))))
(let ((?x457 (ite $x3503 305 304)))
(let (($x1026 (>= ?x878 ?x457)))
(let ((?x1134 (ite $x3503 335 334)))
(let (($x990 (>= ?x878 ?x1134)))
(let ((?x465 (ite $x990 (+ (- ?x878 ?x1134) 1) (ite $x1026 (+ (- ?x878 ?x457) 1) ?x401))))
(let ((?x1835 (ite $x1263 5 (ite $x1175 4 (ite $x947 3 (ite $x1100 2 1))))))
(let ((?x1174 (ite $x691 9 (ite $x1067 8 (ite $x946 7 (ite $x844 6 ?x1835))))))
(let ((?x1003 (+ (ite $x990 12 (ite $x1026 11 (ite $x1104 10 ?x1174))) (+ (* 1 12) 0))))
(let ((?x645 (- ?x1003 1)))
(let ((?x453 (+ (mod ?x645 12) 1)))
(let ((?x598 (ite (or (= ?x453 4) (= ?x453 6) (= ?x453 9) (= ?x453 11)) 30 31)))
(let (($x992 (and (= (mod (+ ?x2125 (+ 0 (div ?x645 12))) 4) 0) (and (distinct (mod (+ ?x2125 (+ 0 (div ?x645 12))) 100) 0) true))))
(let (($x888 (or $x992 (= (mod (+ ?x2125 (+ 0 (div ?x645 12))) 400) 0))))
(let ((?x836 (ite (= ?x453 2) (ite $x888 29 28) ?x598)))
(let ((?x1048 (ite (> 1 ?x465) 1 (ite (> ?x465 ?x836) ?x836 ?x465))))
(let ((?x842 (ite (> 1 ?x1048) 1 (ite (> ?x1048 ?x836) ?x836 ?x1048))))
(let ((?x840 (ite (= 2 ?x453) (ite $x888 31 31) (ite (= 1 ?x453) (ite $x888 0 0) 0))))
(let ((?x525 (ite (= 4 ?x453) (ite $x888 91 90) (ite (= 3 ?x453) (ite $x888 60 59) ?x840))))
(let ((?x877 (ite (= 6 ?x453) (ite $x888 152 151) (ite (= 5 ?x453) (ite $x888 121 120) ?x525))))
(let ((?x578 (ite (= 8 ?x453) (ite $x888 213 212) (ite (= 7 ?x453) (ite $x888 182 181) ?x877))))
(let ((?x542 (ite (= 10 ?x453) (ite $x888 274 273) (ite (= 9 ?x453) (ite $x888 244 243) ?x578))))
(let ((?x832 (ite (= 12 ?x453) (ite $x888 335 334) (ite (= 11 ?x453) (ite $x888 305 304) ?x542))))
(let ((?x861 (+ (* 365 (- (+ ?x2125 (+ 0 (div ?x645 12))) 1)) (div (- (+ ?x2125 (+ 0 (div ?x645 12))) 1) 4))))
(let ((?x918 (+ (- ?x861 (div (- (+ ?x2125 (+ 0 (div ?x645 12))) 1) 100)) (div (- (+ ?x2125 (+ 0 (div ?x645 12))) 1) 400))))
(let ((?x839 (+ (+ (- (+ (+ ?x918 ?x832) (- ?x842 1)) 730179) 0) 730179)))
(let ((?x900 (mod ?x839 146097)))
(let ((?x537 (div ?x900 36524)))
(let ((?x498 (ite (<= 4 ?x537) 3 ?x537)))
(let ((?x3531 (- ?x900 (* ?x498 36524))))
(let ((?x3269 (mod ?x3531 1461)))
(let ((?x2785 (div ?x3269 365)))
(let ((?x480 (ite (<= 4 ?x2785) 3 ?x2785)))
(let ((?x797 (+ (+ (* (div ?x839 146097) 400) (* ?x498 100)) (* (div ?x3531 1461) 4))))
(let ((?x1147 (+ (+ ?x797 ?x480) 1)))
(let (($x846 (or (and (= (mod ?x1147 4) 0) (and (distinct (mod ?x1147 100) 0) true)) (= (mod ?x1147 400) 0))))
(let ((?x998 (- ?x3269 (* ?x480 365))))
(let ((?x1145 (ite $x846 31 31)))
(let (($x2064 (>= ?x998 ?x1145)))
(let ((?x855 (ite $x2064 (+ (- ?x998 ?x1145) 1) (+ (- ?x998 (ite $x846 0 0)) 1))))
(let ((?x1018 (ite $x846 60 59)))
(let (($x1135 (>= ?x998 ?x1018)))
(let ((?x752 (ite $x846 91 90)))
(let (($x403 (>= ?x998 ?x752)))
(let ((?x1063 (ite $x403 (+ (- ?x998 ?x752) 1) (ite $x1135 (+ (- ?x998 ?x1018) 1) ?x855))))
(let ((?x3451 (ite $x846 121 120)))
(let (($x735 (>= ?x998 ?x3451)))
(let ((?x858 (ite $x846 152 151)))
(let (($x422 (>= ?x998 ?x858)))
(let ((?x486 (ite $x422 (+ (- ?x998 ?x858) 1) (ite $x735 (+ (- ?x998 ?x3451) 1) ?x1063))))
(let ((?x1069 (ite $x846 182 181)))
(let (($x493 (>= ?x998 ?x1069)))
(let ((?x535 (ite $x846 213 212)))
(let (($x814 (>= ?x998 ?x535)))
(let ((?x679 (ite $x814 (+ (- ?x998 ?x535) 1) (ite $x493 (+ (- ?x998 ?x1069) 1) ?x486))))
(let ((?x809 (ite $x846 244 243)))
(let (($x1128 (>= ?x998 ?x809)))
(let ((?x629 (ite $x846 274 273)))
(let (($x974 (>= ?x998 ?x629)))
(let ((?x585 (ite $x974 (+ (- ?x998 ?x629) 1) (ite $x1128 (+ (- ?x998 ?x809) 1) ?x679))))
(let ((?x718 (ite $x846 305 304)))
(let (($x1871 (>= ?x998 ?x718)))
(let ((?x1144 (ite $x846 335 334)))
(let (($x837 (>= ?x998 ?x1144)))
(let ((?x491 (ite $x837 (+ (- ?x998 ?x1144) 1) (ite $x1871 (+ (- ?x998 ?x718) 1) ?x585))))
(let (($x2528 (= 0 0)))
(let (($x1635 (= (mod (ite $x2528 (+ ?x2125 (+ 0 (div ?x645 12))) ?x1147) 400) 0)))
(let (($x739 (and (distinct (mod (ite $x2528 (+ ?x2125 (+ 0 (div ?x645 12))) ?x1147) 100) 0) true)))
(let (($x734 (= (mod (ite $x2528 (+ ?x2125 (+ 0 (div ?x645 12))) ?x1147) 4) 0)))
(let (($x654 (or (and $x734 $x739) $x1635)))
(let ((?x699 (ite $x735 5 (ite $x403 4 (ite $x1135 3 (ite $x2064 2 1))))))
(let ((?x3529 (ite $x1128 9 (ite $x814 8 (ite $x493 7 (ite $x422 6 ?x699))))))
(let ((?x496 (ite $x2528 ?x453 (ite $x837 12 (ite $x1871 11 (ite $x974 10 ?x3529))))))
(let ((?x3031 (ite (= 2 ?x496) (ite $x654 31 31) (ite (= 1 ?x496) (ite $x654 0 0) 0))))
(let ((?x712 (ite (= 4 ?x496) (ite $x654 91 90) (ite (= 3 ?x496) (ite $x654 60 59) ?x3031))))
(let ((?x754 (ite (= 6 ?x496) (ite $x654 152 151) (ite (= 5 ?x496) (ite $x654 121 120) ?x712))))
(let ((?x705 (ite (= 8 ?x496) (ite $x654 213 212) (ite (= 7 ?x496) (ite $x654 182 181) ?x754))))
(let ((?x3157 (ite (= 10 ?x496) (ite $x654 274 273) (ite (= 9 ?x496) (ite $x654 244 243) ?x705))))
(let ((?x1106 (ite (= 12 ?x496) (ite $x654 335 334) (ite (= 11 ?x496) (ite $x654 305 304) ?x3157))))
(let ((?x769 (+ ?x2125 (+ 0 (div ?x645 12)))))
(let ((?x501 (ite $x2528 ?x769 ?x1147)))
(let ((?x820 (- ?x501 1)))
(let ((?x1533 (+ (- (+ (* 365 ?x820) (div ?x820 4)) (div ?x820 100)) (div ?x820 400))))
(= (- (+ (+ ?x1533 ?x1106) (- (ite $x2528 ?x842 ?x491) 1)) 730179) 7669)))))))))))))))))))))))))))))))))))))))))))))))))))))))))))))))))))))))))))))))))))))))))))))))))))))))))))))))))))))))
(check-sat)
